# Escenario generado automaticamente: normal

param alpha := 0.5;
param fecha_hoy := 45984;
param s := 100;

set I := P1 P2 P3 P4 P5 P6 P7 P8 P9 P10 P11 P12 P13 P14 P15 P16 P17 P18 P19 P20 P21 P22 P23 P24 P25 P26 P27 P28 P29 P30 P31 P32 P33 P34 P35 P36 P37 P38 P39 P40 P41 P42 P43 P44 P45 P46 P47 P48 P49 P50 P51 P52 P53 P54 P55 P56 P57 P58 P59 P60 P61 P62 P63 P64 P65 P66 P67 P68 P69 P70 P71 P72 P73 P74 P75 P76 P77 P78 P79 P80 P81 P82 P83 P84 P85 P86 P87 P88 P89 P90 P91 P92 P93 P94 P95 P96 P97 P98 P99 P100;
set C := C1 C2 C3 C4 C5 C6 C7 C8 C9 C10 C11 C12 C13 C14 C15;
set J := T1 T2 T3 T4 T5 T6 T7 T8 T9 T10;

param dist_c :=
  'C1' 33
  'C2' 78
  'C3' 40
  'C4' 77
  'C5' 10
  'C6' 13
  'C7' 75
  'C8' 51
  'C9' 71
  'C10' 83
  'C11' 59
  'C12' 76
  'C13' 7
  'C14' 29
  'C15' 82
;

param F :=
  'T1' 700
  'T2' 350
  'T3' 700
  'T4' 350
  'T5' 700
  'T6' 700
  'T7' 700
  'T8' 700
  'T9' 700
  'T10' 700
;
param ADRmax :=
  'T1' 5
  'T2' 0
  'T3' 5
  'T4' 0
  'T5' 5
  'T6' 5
  'T7' 5
  'T8' 5
  'T9' 5
  'T10' 5
;
param W :=
  'T1' 3500
  'T2' 1000
  'T3' 3500
  'T4' 1000
  'T5' 3500
  'T6' 3500
  'T7' 3500
  'T8' 3500
  'T9' 3500
  'T10' 3500
;
param V :=
  'T1' 25
  'T2' 10
  'T3' 25
  'T4' 10
  'T5' 25
  'T6' 25
  'T7' 25
  'T8' 25
  'T9' 25
  'T10' 25
;
param Pmax :=
  'T1' 6
  'T2' 10
  'T3' 4
  'T4' 5
  'T5' 9
  'T6' 4
  'T7' 5
  'T8' 10
  'T9' 9
  'T10' 4
;

param pes :=
  'P1' 170
  'P2' 280
  'P3' 220
  'P4' 136
  'P5' 118
  'P6' 235
  'P7' 203
  'P8' 161
  'P9' 117
  'P10' 257
  'P11' 175
  'P12' 233
  'P13' 161
  'P14' 270
  'P15' 122
  'P16' 158
  'P17' 233
  'P18' 122
  'P19' 110
  'P20' 138
  'P21' 120
  'P22' 120
  'P23' 262
  'P24' 253
  'P25' 147
  'P26' 192
  'P27' 271
  'P28' 192
  'P29' 171
  'P30' 157
  'P31' 225
  'P32' 103
  'P33' 206
  'P34' 131
  'P35' 164
  'P36' 244
  'P37' 294
  'P38' 277
  'P39' 129
  'P40' 172
  'P41' 106
  'P42' 184
  'P43' 137
  'P44' 106
  'P45' 141
  'P46' 162
  'P47' 215
  'P48' 102
  'P49' 151
  'P50' 244
  'P51' 164
  'P52' 217
  'P53' 194
  'P54' 146
  'P55' 203
  'P56' 236
  'P57' 232
  'P58' 277
  'P59' 156
  'P60' 299
  'P61' 163
  'P62' 260
  'P63' 182
  'P64' 233
  'P65' 158
  'P66' 257
  'P67' 274
  'P68' 216
  'P69' 286
  'P70' 272
  'P71' 133
  'P72' 251
  'P73' 177
  'P74' 260
  'P75' 149
  'P76' 260
  'P77' 280
  'P78' 134
  'P79' 265
  'P80' 144
  'P81' 193
  'P82' 298
  'P83' 288
  'P84' 261
  'P85' 177
  'P86' 205
  'P87' 144
  'P88' 143
  'P89' 220
  'P90' 180
  'P91' 124
  'P92' 210
  'P93' 192
  'P94' 277
  'P95' 220
  'P96' 109
  'P97' 299
  'P98' 166
  'P99' 115
  'P100' 295
;
param vol :=
  'P1' 3
  'P2' 3
  'P3' 1
  'P4' 2
  'P5' 2
  'P6' 1
  'P7' 1
  'P8' 2
  'P9' 2
  'P10' 3
  'P11' 3
  'P12' 1
  'P13' 3
  'P14' 1
  'P15' 1
  'P16' 1
  'P17' 2
  'P18' 2
  'P19' 2
  'P20' 3
  'P21' 3
  'P22' 3
  'P23' 1
  'P24' 1
  'P25' 1
  'P26' 3
  'P27' 3
  'P28' 2
  'P29' 1
  'P30' 1
  'P31' 3
  'P32' 3
  'P33' 1
  'P34' 1
  'P35' 3
  'P36' 3
  'P37' 1
  'P38' 3
  'P39' 1
  'P40' 3
  'P41' 1
  'P42' 3
  'P43' 3
  'P44' 1
  'P45' 2
  'P46' 3
  'P47' 1
  'P48' 3
  'P49' 1
  'P50' 2
  'P51' 2
  'P52' 1
  'P53' 2
  'P54' 2
  'P55' 1
  'P56' 3
  'P57' 2
  'P58' 2
  'P59' 2
  'P60' 2
  'P61' 3
  'P62' 2
  'P63' 3
  'P64' 2
  'P65' 1
  'P66' 2
  'P67' 1
  'P68' 1
  'P69' 1
  'P70' 2
  'P71' 1
  'P72' 3
  'P73' 2
  'P74' 1
  'P75' 2
  'P76' 3
  'P77' 2
  'P78' 1
  'P79' 1
  'P80' 2
  'P81' 1
  'P82' 2
  'P83' 3
  'P84' 1
  'P85' 3
  'P86' 3
  'P87' 3
  'P88' 1
  'P89' 1
  'P90' 3
  'P91' 1
  'P92' 2
  'P93' 1
  'P94' 2
  'P95' 3
  'P96' 1
  'P97' 2
  'P98' 3
  'P99' 1
  'P100' 2
;
param adr :=
  'P1' 0
  'P2' 0
  'P3' 0
  'P4' 0
  'P5' 0
  'P6' 0
  'P7' 0
  'P8' 1
  'P9' 0
  'P10' 0
  'P11' 0
  'P12' 0
  'P13' 0
  'P14' 0
  'P15' 0
  'P16' 0
  'P17' 0
  'P18' 0
  'P19' 0
  'P20' 0
  'P21' 0
  'P22' 0
  'P23' 0
  'P24' 0
  'P25' 0
  'P26' 0
  'P27' 0
  'P28' 0
  'P29' 0
  'P30' 0
  'P31' 0
  'P32' 1
  'P33' 0
  'P34' 0
  'P35' 0
  'P36' 0
  'P37' 0
  'P38' 0
  'P39' 0
  'P40' 0
  'P41' 0
  'P42' 0
  'P43' 0
  'P44' 0
  'P45' 0
  'P46' 0
  'P47' 0
  'P48' 0
  'P49' 0
  'P50' 0
  'P51' 1
  'P52' 0
  'P53' 0
  'P54' 0
  'P55' 0
  'P56' 0
  'P57' 0
  'P58' 0
  'P59' 0
  'P60' 0
  'P61' 0
  'P62' 1
  'P63' 0
  'P64' 0
  'P65' 0
  'P66' 0
  'P67' 0
  'P68' 0
  'P69' 0
  'P70' 0
  'P71' 0
  'P72' 0
  'P73' 0
  'P74' 0
  'P75' 0
  'P76' 0
  'P77' 0
  'P78' 0
  'P79' 1
  'P80' 0
  'P81' 0
  'P82' 0
  'P83' 0
  'P84' 0
  'P85' 1
  'P86' 1
  'P87' 0
  'P88' 0
  'P89' 0
  'P90' 0
  'P91' 0
  'P92' 0
  'P93' 0
  'P94' 0
  'P95' 0
  'P96' 0
  'P97' 0
  'P98' 0
  'P99' 0
  'P100' 0
;
param t :=
  'P1' 350
  'P2' 350
  'P3' 350
  'P4' 350
  'P5' 350
  'P6' 350
  'P7' 350
  'P8' 350
  'P9' 350
  'P10' 350
  'P11' 350
  'P12' 350
  'P13' 350
  'P14' 350
  'P15' 350
  'P16' 350
  'P17' 350
  'P18' 350
  'P19' 350
  'P20' 350
  'P21' 350
  'P22' 350
  'P23' 350
  'P24' 350
  'P25' 350
  'P26' 350
  'P27' 350
  'P28' 350
  'P29' 350
  'P30' 350
  'P31' 350
  'P32' 350
  'P33' 350
  'P34' 350
  'P35' 350
  'P36' 350
  'P37' 350
  'P38' 350
  'P39' 350
  'P40' 350
  'P41' 350
  'P42' 350
  'P43' 350
  'P44' 350
  'P45' 350
  'P46' 350
  'P47' 350
  'P48' 350
  'P49' 350
  'P50' 350
  'P51' 350
  'P52' 350
  'P53' 350
  'P54' 350
  'P55' 350
  'P56' 350
  'P57' 350
  'P58' 350
  'P59' 350
  'P60' 350
  'P61' 350
  'P62' 350
  'P63' 350
  'P64' 350
  'P65' 350
  'P66' 350
  'P67' 350
  'P68' 350
  'P69' 350
  'P70' 350
  'P71' 350
  'P72' 350
  'P73' 350
  'P74' 350
  'P75' 350
  'P76' 350
  'P77' 350
  'P78' 350
  'P79' 350
  'P80' 350
  'P81' 350
  'P82' 350
  'P83' 350
  'P84' 350
  'P85' 350
  'P86' 350
  'P87' 350
  'P88' 350
  'P89' 350
  'P90' 350
  'P91' 350
  'P92' 350
  'P93' 350
  'P94' 350
  'P95' 350
  'P96' 350
  'P97' 350
  'P98' 350
  'P99' 350
  'P100' 350
;
param fecha :=
  'P1' 45984
  'P2' 45984
  'P3' 45984
  'P4' 45984
  'P5' 45984
  'P6' 45985
  'P7' 45985
  'P8' 45984
  'P9' 45984
  'P10' 45985
  'P11' 45984
  'P12' 45985
  'P13' 45984
  'P14' 45984
  'P15' 45984
  'P16' 45984
  'P17' 45984
  'P18' 45985
  'P19' 45985
  'P20' 45985
  'P21' 45984
  'P22' 45985
  'P23' 45984
  'P24' 45985
  'P25' 45984
  'P26' 45984
  'P27' 45984
  'P28' 45984
  'P29' 45984
  'P30' 45985
  'P31' 45984
  'P32' 45984
  'P33' 45984
  'P34' 45985
  'P35' 45985
  'P36' 45985
  'P37' 45984
  'P38' 45984
  'P39' 45984
  'P40' 45984
  'P41' 45984
  'P42' 45984
  'P43' 45985
  'P44' 45985
  'P45' 45984
  'P46' 45985
  'P47' 45985
  'P48' 45984
  'P49' 45985
  'P50' 45985
  'P51' 45984
  'P52' 45984
  'P53' 45984
  'P54' 45984
  'P55' 45985
  'P56' 45984
  'P57' 45984
  'P58' 45984
  'P59' 45985
  'P60' 45984
  'P61' 45984
  'P62' 45984
  'P63' 45984
  'P64' 45985
  'P65' 45984
  'P66' 45984
  'P67' 45984
  'P68' 45984
  'P69' 45984
  'P70' 45984
  'P71' 45984
  'P72' 45985
  'P73' 45984
  'P74' 45984
  'P75' 45984
  'P76' 45985
  'P77' 45985
  'P78' 45984
  'P79' 45984
  'P80' 45984
  'P81' 45984
  'P82' 45984
  'P83' 45985
  'P84' 45984
  'P85' 45984
  'P86' 45985
  'P87' 45985
  'P88' 45984
  'P89' 45985
  'P90' 45984
  'P91' 45985
  'P92' 45985
  'P93' 45985
  'P94' 45985
  'P95' 45984
  'P96' 45984
  'P97' 45985
  'P98' 45984
  'P99' 45984
  'P100' 45985
;
param cli :=
  'P1' 'C10'
  'P2' 'C1'
  'P3' 'C7'
  'P4' 'C9'
  'P5' 'C5'
  'P6' 'C15'
  'P7' 'C1'
  'P8' 'C15'
  'P9' 'C10'
  'P10' 'C13'
  'P11' 'C11'
  'P12' 'C3'
  'P13' 'C5'
  'P14' 'C6'
  'P15' 'C10'
  'P16' 'C15'
  'P17' 'C3'
  'P18' 'C10'
  'P19' 'C7'
  'P20' 'C12'
  'P21' 'C15'
  'P22' 'C12'
  'P23' 'C7'
  'P24' 'C4'
  'P25' 'C7'
  'P26' 'C12'
  'P27' 'C5'
  'P28' 'C3'
  'P29' 'C14'
  'P30' 'C13'
  'P31' 'C4'
  'P32' 'C15'
  'P33' 'C3'
  'P34' 'C4'
  'P35' 'C3'
  'P36' 'C4'
  'P37' 'C7'
  'P38' 'C7'
  'P39' 'C6'
  'P40' 'C8'
  'P41' 'C6'
  'P42' 'C12'
  'P43' 'C6'
  'P44' 'C10'
  'P45' 'C2'
  'P46' 'C8'
  'P47' 'C9'
  'P48' 'C3'
  'P49' 'C8'
  'P50' 'C11'
  'P51' 'C7'
  'P52' 'C3'
  'P53' 'C14'
  'P54' 'C8'
  'P55' 'C9'
  'P56' 'C12'
  'P57' 'C12'
  'P58' 'C14'
  'P59' 'C8'
  'P60' 'C12'
  'P61' 'C15'
  'P62' 'C5'
  'P63' 'C15'
  'P64' 'C9'
  'P65' 'C15'
  'P66' 'C5'
  'P67' 'C5'
  'P68' 'C14'
  'P69' 'C7'
  'P70' 'C2'
  'P71' 'C2'
  'P72' 'C3'
  'P73' 'C3'
  'P74' 'C12'
  'P75' 'C14'
  'P76' 'C10'
  'P77' 'C6'
  'P78' 'C4'
  'P79' 'C5'
  'P80' 'C12'
  'P81' 'C14'
  'P82' 'C1'
  'P83' 'C3'
  'P84' 'C4'
  'P85' 'C4'
  'P86' 'C14'
  'P87' 'C15'
  'P88' 'C15'
  'P89' 'C11'
  'P90' 'C4'
  'P91' 'C14'
  'P92' 'C13'
  'P93' 'C5'
  'P94' 'C15'
  'P95' 'C8'
  'P96' 'C2'
  'P97' 'C7'
  'P98' 'C12'
  'P99' 'C4'
  'P100' 'C11'
;
